NAME           C:\Bruker\Hvattum\knapsack\Problems\class4\100-10-25.mps
ROWS
 N  OBJ
 L  CONSTR1
 L  CONSTR2
 L  CONSTR3
 L  CONSTR4
 L  CONSTR5
 L  CONSTR6
 L  CONSTR7
 L  CONSTR8
 L  CONSTR9
 L  CONSTR10
COLUMNS
    INT0001   'MARKER'  'INTORG'
    X1        OBJ       949
    X1        CONSTR1   322
    X1        CONSTR2   183
    X1        CONSTR3   794
    X1        CONSTR4   624
    X1        CONSTR5   962
    X1        CONSTR6   914
    X1        CONSTR7   414
    X1        CONSTR8   511
    X1        CONSTR9   647
    X1        CONSTR10  364
    X2        OBJ       754
    X2        CONSTR1   764
    X2        CONSTR2   694
    X2        CONSTR3   939
    X2        CONSTR4   509
    X2        CONSTR5   780
    X2        CONSTR6   120
    X2        CONSTR7   618
    X2        CONSTR8   555
    X2        CONSTR9   8
    X2        CONSTR10  707
    X3        OBJ       1040
    X3        CONSTR1   350
    X3        CONSTR2   671
    X3        CONSTR3   699
    X3        CONSTR4   962
    X3        CONSTR5   543
    X3        CONSTR6   340
    X3        CONSTR7   837
    X3        CONSTR8   933
    X3        CONSTR9   204
    X3        CONSTR10  724
    X4        OBJ       911
    X4        CONSTR1   539
    X4        CONSTR2   834
    X4        CONSTR3   516
    X4        CONSTR4   322
    X4        CONSTR5   762
    X4        CONSTR6   645
    X4        CONSTR7   85
    X4        CONSTR8   952
    X4        CONSTR9   898
    X4        CONSTR10  645
    X5        OBJ       731
    X5        CONSTR1   319
    X5        CONSTR2   24
    X5        CONSTR3   181
    X5        CONSTR4   355
    X5        CONSTR5   827
    X5        CONSTR6   961
    X5        CONSTR7   108
    X5        CONSTR8   468
    X5        CONSTR9   349
    X5        CONSTR10  278
    X6        OBJ       580
    X6        CONSTR1   810
    X6        CONSTR2   238
    X6        CONSTR3   273
    X6        CONSTR4   657
    X6        CONSTR5   965
    X6        CONSTR6   995
    X6        CONSTR7   106
    X6        CONSTR8   654
    X6        CONSTR9   238
    X6        CONSTR10  70
    X7        OBJ       626
    X7        CONSTR1   996
    X7        CONSTR2   100
    X7        CONSTR3   170
    X7        CONSTR4   479
    X7        CONSTR5   587
    X7        CONSTR6   296
    X7        CONSTR7   311
    X7        CONSTR8   373
    X7        CONSTR9   692
    X7        CONSTR10  154
    X8        OBJ       784
    X8        CONSTR1   713
    X8        CONSTR2   806
    X8        CONSTR3   720
    X8        CONSTR4   346
    X8        CONSTR5   935
    X8        CONSTR6   194
    X8        CONSTR7   218
    X8        CONSTR8   545
    X8        CONSTR9   742
    X8        CONSTR10  566
    X9        OBJ       777
    X9        CONSTR1   982
    X9        CONSTR2   100
    X9        CONSTR3   138
    X9        CONSTR4   477
    X9        CONSTR5   40
    X9        CONSTR6   287
    X9        CONSTR7   506
    X9        CONSTR8   458
    X9        CONSTR9   156
    X9        CONSTR10  215
    X10       OBJ       579
    X10       CONSTR1   495
    X10       CONSTR2   330
    X10       CONSTR3   922
    X10       CONSTR4   997
    X10       CONSTR5   142
    X10       CONSTR6   706
    X10       CONSTR7   515
    X10       CONSTR8   295
    X10       CONSTR9   168
    X10       CONSTR10  353
    X11       OBJ       744
    X11       CONSTR1   389
    X11       CONSTR2   437
    X11       CONSTR3   901
    X11       CONSTR4   338
    X11       CONSTR5   494
    X11       CONSTR6   23
    X11       CONSTR7   495
    X11       CONSTR8   816
    X11       CONSTR9   772
    X11       CONSTR10  830
    X12       OBJ       579
    X12       CONSTR1   175
    X12       CONSTR2   532
    X12       CONSTR3   440
    X12       CONSTR4   60
    X12       CONSTR5   539
    X12       CONSTR6   863
    X12       CONSTR7   945
    X12       CONSTR8   679
    X12       CONSTR9   276
    X12       CONSTR10  58
    X13       OBJ       462
    X13       CONSTR1   894
    X13       CONSTR2   14
    X13       CONSTR3   167
    X13       CONSTR4   819
    X13       CONSTR5   186
    X13       CONSTR6   970
    X13       CONSTR7   4
    X13       CONSTR8   225
    X13       CONSTR9   272
    X13       CONSTR10  920
    X14       OBJ       1030
    X14       CONSTR1   959
    X14       CONSTR2   335
    X14       CONSTR3   983
    X14       CONSTR4   290
    X14       CONSTR5   114
    X14       CONSTR6   641
    X14       CONSTR7   512
    X14       CONSTR8   688
    X14       CONSTR9   779
    X14       CONSTR10  673
    X15       OBJ       676
    X15       CONSTR1   26
    X15       CONSTR2   872
    X15       CONSTR3   410
    X15       CONSTR4   415
    X15       CONSTR5   709
    X15       CONSTR6   891
    X15       CONSTR7   207
    X15       CONSTR8   893
    X15       CONSTR9   955
    X15       CONSTR10  414
    X16       OBJ       849
    X16       CONSTR1   326
    X16       CONSTR2   260
    X16       CONSTR3   798
    X16       CONSTR4   759
    X16       CONSTR5   374
    X16       CONSTR6   275
    X16       CONSTR7   537
    X16       CONSTR8   673
    X16       CONSTR9   644
    X16       CONSTR10  613
    X17       OBJ       1059
    X17       CONSTR1   528
    X17       CONSTR2   354
    X17       CONSTR3   305
    X17       CONSTR4   627
    X17       CONSTR5   836
    X17       CONSTR6   986
    X17       CONSTR7   846
    X17       CONSTR8   267
    X17       CONSTR9   976
    X17       CONSTR10  860
    X18       OBJ       1047
    X18       CONSTR1   823
    X18       CONSTR2   941
    X18       CONSTR3   608
    X18       CONSTR4   180
    X18       CONSTR5   782
    X18       CONSTR6   304
    X18       CONSTR7   238
    X18       CONSTR8   954
    X18       CONSTR9   921
    X18       CONSTR10  538
    X19       OBJ       732
    X19       CONSTR1   568
    X19       CONSTR2   578
    X19       CONSTR3   228
    X19       CONSTR4   577
    X19       CONSTR5   455
    X19       CONSTR6   707
    X19       CONSTR7   485
    X19       CONSTR8   171
    X19       CONSTR9   109
    X19       CONSTR10  428
    X20       OBJ       761
    X20       CONSTR1   533
    X20       CONSTR2   213
    X20       CONSTR3   774
    X20       CONSTR4   600
    X20       CONSTR5   454
    X20       CONSTR6   915
    X20       CONSTR7   790
    X20       CONSTR8   732
    X20       CONSTR9   272
    X20       CONSTR10  916
    X21       OBJ       892
    X21       CONSTR1   486
    X21       CONSTR2   810
    X21       CONSTR3   658
    X21       CONSTR4   688
    X21       CONSTR5   861
    X21       CONSTR6   147
    X21       CONSTR7   873
    X21       CONSTR8   893
    X21       CONSTR9   477
    X21       CONSTR10  458
    X22       OBJ       466
    X22       CONSTR1   437
    X22       CONSTR2   201
    X22       CONSTR3   231
    X22       CONSTR4   324
    X22       CONSTR5   870
    X22       CONSTR6   362
    X22       CONSTR7   222
    X22       CONSTR8   845
    X22       CONSTR9   300
    X22       CONSTR10  512
    X23       OBJ       851
    X23       CONSTR1   186
    X23       CONSTR2   676
    X23       CONSTR3   27
    X23       CONSTR4   501
    X23       CONSTR5   956
    X23       CONSTR6   237
    X23       CONSTR7   860
    X23       CONSTR8   81
    X23       CONSTR9   698
    X23       CONSTR10  463
    X24       OBJ       742
    X24       CONSTR1   800
    X24       CONSTR2   713
    X24       CONSTR3   980
    X24       CONSTR4   147
    X24       CONSTR5   310
    X24       CONSTR6   98
    X24       CONSTR7   147
    X24       CONSTR8   458
    X24       CONSTR9   197
    X24       CONSTR10  801
    X25       OBJ       732
    X25       CONSTR1   720
    X25       CONSTR2   481
    X25       CONSTR3   181
    X25       CONSTR4   237
    X25       CONSTR5   96
    X25       CONSTR6   682
    X25       CONSTR7   528
    X25       CONSTR8   750
    X25       CONSTR9   396
    X25       CONSTR10  243
    X26       OBJ       943
    X26       CONSTR1   35
    X26       CONSTR2   682
    X26       CONSTR3   353
    X26       CONSTR4   964
    X26       CONSTR5   700
    X26       CONSTR6   478
    X26       CONSTR7   52
    X26       CONSTR8   338
    X26       CONSTR9   648
    X26       CONSTR10  569
    X27       OBJ       890
    X27       CONSTR1   686
    X27       CONSTR2   796
    X27       CONSTR3   452
    X27       CONSTR4   552
    X27       CONSTR5   643
    X27       CONSTR6   368
    X27       CONSTR7   11
    X27       CONSTR8   73
    X27       CONSTR9   312
    X27       CONSTR10  500
    X28       OBJ       619
    X28       CONSTR1   679
    X28       CONSTR2   315
    X28       CONSTR3   457
    X28       CONSTR4   577
    X28       CONSTR5   278
    X28       CONSTR6   608
    X28       CONSTR7   768
    X28       CONSTR8   290
    X28       CONSTR9   640
    X28       CONSTR10  556
    X29       OBJ       969
    X29       CONSTR1   518
    X29       CONSTR2   740
    X29       CONSTR3   946
    X29       CONSTR4   964
    X29       CONSTR5   510
    X29       CONSTR6   809
    X29       CONSTR7   288
    X29       CONSTR8   801
    X29       CONSTR9   291
    X29       CONSTR10  291
    X30       OBJ       661
    X30       CONSTR1   967
    X30       CONSTR2   54
    X30       CONSTR3   352
    X30       CONSTR4   668
    X30       CONSTR5   172
    X30       CONSTR6   320
    X30       CONSTR7   50
    X30       CONSTR8   609
    X30       CONSTR9   598
    X30       CONSTR10  375
    X31       OBJ       640
    X31       CONSTR1   43
    X31       CONSTR2   612
    X31       CONSTR3   129
    X31       CONSTR4   81
    X31       CONSTR5   838
    X31       CONSTR6   690
    X31       CONSTR7   248
    X31       CONSTR8   363
    X31       CONSTR9   256
    X31       CONSTR10  603
    X32       OBJ       819
    X32       CONSTR1   228
    X32       CONSTR2   1
    X32       CONSTR3   397
    X32       CONSTR4   521
    X32       CONSTR5   428
    X32       CONSTR6   780
    X32       CONSTR7   180
    X32       CONSTR8   195
    X32       CONSTR9   537
    X32       CONSTR10  193
    X33       OBJ       659
    X33       CONSTR1   932
    X33       CONSTR2   811
    X33       CONSTR3   863
    X33       CONSTR4   396
    X33       CONSTR5   968
    X33       CONSTR6   155
    X33       CONSTR7   370
    X33       CONSTR8   602
    X33       CONSTR9   430
    X33       CONSTR10  952
    X34       OBJ       552
    X34       CONSTR1   852
    X34       CONSTR2   123
    X34       CONSTR3   474
    X34       CONSTR4   535
    X34       CONSTR5   128
    X34       CONSTR6   158
    X34       CONSTR7   884
    X34       CONSTR8   371
    X34       CONSTR9   631
    X34       CONSTR10  526
    X35       OBJ       922
    X35       CONSTR1   934
    X35       CONSTR2   581
    X35       CONSTR3   878
    X35       CONSTR4   142
    X35       CONSTR5   790
    X35       CONSTR6   879
    X35       CONSTR7   978
    X35       CONSTR8   433
    X35       CONSTR9   952
    X35       CONSTR10  106
    X36       OBJ       865
    X36       CONSTR1   834
    X36       CONSTR2   345
    X36       CONSTR3   227
    X36       CONSTR4   743
    X36       CONSTR5   277
    X36       CONSTR6   442
    X36       CONSTR7   977
    X36       CONSTR8   544
    X36       CONSTR9   737
    X36       CONSTR10  404
    X37       OBJ       1057
    X37       CONSTR1   273
    X37       CONSTR2   979
    X37       CONSTR3   997
    X37       CONSTR4   308
    X37       CONSTR5   334
    X37       CONSTR6   870
    X37       CONSTR7   991
    X37       CONSTR8   258
    X37       CONSTR9   895
    X37       CONSTR10  91
    X38       OBJ       996
    X38       CONSTR1   613
    X38       CONSTR2   333
    X38       CONSTR3   814
    X38       CONSTR4   588
    X38       CONSTR5   628
    X38       CONSTR6   58
    X38       CONSTR7   154
    X38       CONSTR8   935
    X38       CONSTR9   847
    X38       CONSTR10  666
    X39       OBJ       382
    X39       CONSTR1   70
    X39       CONSTR2   938
    X39       CONSTR3   184
    X39       CONSTR4   400
    X39       CONSTR5   190
    X39       CONSTR6   236
    X39       CONSTR7   848
    X39       CONSTR8   38
    X39       CONSTR9   549
    X39       CONSTR10  314
    X40       OBJ       851
    X40       CONSTR1   518
    X40       CONSTR2   773
    X40       CONSTR3   583
    X40       CONSTR4   556
    X40       CONSTR5   244
    X40       CONSTR6   938
    X40       CONSTR7   761
    X40       CONSTR8   722
    X40       CONSTR9   98
    X40       CONSTR10  420
    X41       OBJ       410
    X41       CONSTR1   30
    X41       CONSTR2   265
    X41       CONSTR3   206
    X41       CONSTR4   266
    X41       CONSTR5   606
    X41       CONSTR6   35
    X41       CONSTR7   352
    X41       CONSTR8   130
    X41       CONSTR9   310
    X41       CONSTR10  1
    X42       OBJ       661
    X42       CONSTR1   95
    X42       CONSTR2   347
    X42       CONSTR3   748
    X42       CONSTR4   517
    X42       CONSTR5   185
    X42       CONSTR6   993
    X42       CONSTR7   856
    X42       CONSTR8   126
    X42       CONSTR9   189
    X42       CONSTR10  198
    X43       OBJ       683
    X43       CONSTR1   46
    X43       CONSTR2   597
    X43       CONSTR3   718
    X43       CONSTR4   133
    X43       CONSTR5   257
    X43       CONSTR6   350
    X43       CONSTR7   317
    X43       CONSTR8   333
    X43       CONSTR9   943
    X43       CONSTR10  611
    X44       OBJ       753
    X44       CONSTR1   46
    X44       CONSTR2   38
    X44       CONSTR3   120
    X44       CONSTR4   883
    X44       CONSTR5   311
    X44       CONSTR6   429
    X44       CONSTR7   380
    X44       CONSTR8   888
    X44       CONSTR9   202
    X44       CONSTR10  217
    X45       OBJ       623
    X45       CONSTR1   999
    X45       CONSTR2   646
    X45       CONSTR3   79
    X45       CONSTR4   490
    X45       CONSTR5   926
    X45       CONSTR6   359
    X45       CONSTR7   562
    X45       CONSTR8   897
    X45       CONSTR9   662
    X45       CONSTR10  424
    X46       OBJ       640
    X46       CONSTR1   716
    X46       CONSTR2   287
    X46       CONSTR3   361
    X46       CONSTR4   722
    X46       CONSTR5   258
    X46       CONSTR6   200
    X46       CONSTR7   532
    X46       CONSTR8   550
    X46       CONSTR9   316
    X46       CONSTR10  604
    X47       OBJ       684
    X47       CONSTR1   44
    X47       CONSTR2   594
    X47       CONSTR3   925
    X47       CONSTR4   881
    X47       CONSTR5   746
    X47       CONSTR6   358
    X47       CONSTR7   737
    X47       CONSTR8   283
    X47       CONSTR9   82
    X47       CONSTR10  80
    X48       OBJ       656
    X48       CONSTR1   324
    X48       CONSTR2   914
    X48       CONSTR3   246
    X48       CONSTR4   767
    X48       CONSTR5   684
    X48       CONSTR6   688
    X48       CONSTR7   199
    X48       CONSTR8   407
    X48       CONSTR9   471
    X48       CONSTR10  799
    X49       OBJ       871
    X49       CONSTR1   843
    X49       CONSTR2   125
    X49       CONSTR3   738
    X49       CONSTR4   384
    X49       CONSTR5   537
    X49       CONSTR6   551
    X49       CONSTR7   420
    X49       CONSTR8   822
    X49       CONSTR9   580
    X49       CONSTR10  386
    X50       OBJ       1005
    X50       CONSTR1   55
    X50       CONSTR2   785
    X50       CONSTR3   525
    X50       CONSTR4   331
    X50       CONSTR5   872
    X50       CONSTR6   322
    X50       CONSTR7   812
    X50       CONSTR8   150
    X50       CONSTR9   875
    X50       CONSTR10  848
    X51       OBJ       985
    X51       CONSTR1   451
    X51       CONSTR2   277
    X51       CONSTR3   757
    X51       CONSTR4   644
    X51       CONSTR5   375
    X51       CONSTR6   769
    X51       CONSTR7   622
    X51       CONSTR8   939
    X51       CONSTR9   440
    X51       CONSTR10  818
    X52       OBJ       588
    X52       CONSTR1   929
    X52       CONSTR2   582
    X52       CONSTR3   954
    X52       CONSTR4   253
    X52       CONSTR5   526
    X52       CONSTR6   279
    X52       CONSTR7   100
    X52       CONSTR8   162
    X52       CONSTR9   993
    X52       CONSTR10  697
    X53       OBJ       549
    X53       CONSTR1   907
    X53       CONSTR2   405
    X53       CONSTR3   280
    X53       CONSTR4   908
    X53       CONSTR5   377
    X53       CONSTR6   214
    X53       CONSTR7   441
    X53       CONSTR8   685
    X53       CONSTR9   389
    X53       CONSTR10  524
    X54       OBJ       798
    X54       CONSTR1   659
    X54       CONSTR2   618
    X54       CONSTR3   150
    X54       CONSTR4   712
    X54       CONSTR5   766
    X54       CONSTR6   673
    X54       CONSTR7   422
    X54       CONSTR8   213
    X54       CONSTR9   516
    X54       CONSTR10  99
    X55       OBJ       929
    X55       CONSTR1   932
    X55       CONSTR2   947
    X55       CONSTR3   148
    X55       CONSTR4   930
    X55       CONSTR5   237
    X55       CONSTR6   664
    X55       CONSTR7   431
    X55       CONSTR8   918
    X55       CONSTR9   840
    X55       CONSTR10  677
    X56       OBJ       949
    X56       CONSTR1   194
    X56       CONSTR2   801
    X56       CONSTR3   456
    X56       CONSTR4   821
    X56       CONSTR5   503
    X56       CONSTR6   713
    X56       CONSTR7   301
    X56       CONSTR8   337
    X56       CONSTR9   91
    X56       CONSTR10  972
    X57       OBJ       877
    X57       CONSTR1   316
    X57       CONSTR2   943
    X57       CONSTR3   104
    X57       CONSTR4   311
    X57       CONSTR5   992
    X57       CONSTR6   542
    X57       CONSTR7   803
    X57       CONSTR8   809
    X57       CONSTR9   623
    X57       CONSTR10  675
    X58       OBJ       1080
    X58       CONSTR1   193
    X58       CONSTR2   665
    X58       CONSTR3   728
    X58       CONSTR4   921
    X58       CONSTR5   532
    X58       CONSTR6   562
    X58       CONSTR7   452
    X58       CONSTR8   843
    X58       CONSTR9   815
    X58       CONSTR10  655
    X59       OBJ       737
    X59       CONSTR1   165
    X59       CONSTR2   91
    X59       CONSTR3   766
    X59       CONSTR4   141
    X59       CONSTR5   690
    X59       CONSTR6   837
    X59       CONSTR7   976
    X59       CONSTR8   647
    X59       CONSTR9   356
    X59       CONSTR10  933
    X60       OBJ       801
    X60       CONSTR1   372
    X60       CONSTR2   974
    X60       CONSTR3   477
    X60       CONSTR4   375
    X60       CONSTR5   492
    X60       CONSTR6   949
    X60       CONSTR7   693
    X60       CONSTR8   793
    X60       CONSTR9   407
    X60       CONSTR10  456
    X61       OBJ       789
    X61       CONSTR1   620
    X61       CONSTR2   63
    X61       CONSTR3   242
    X61       CONSTR4   769
    X61       CONSTR5   766
    X61       CONSTR6   303
    X61       CONSTR7   310
    X61       CONSTR8   997
    X61       CONSTR9   283
    X61       CONSTR10  643
    X62       OBJ       663
    X62       CONSTR1   381
    X62       CONSTR2   96
    X62       CONSTR3   395
    X62       CONSTR4   188
    X62       CONSTR5   859
    X62       CONSTR6   55
    X62       CONSTR7   69
    X62       CONSTR8   837
    X62       CONSTR9   796
    X62       CONSTR10  983
    X63       OBJ       934
    X63       CONSTR1   104
    X63       CONSTR2   971
    X63       CONSTR3   50
    X63       CONSTR4   395
    X63       CONSTR5   237
    X63       CONSTR6   192
    X63       CONSTR7   797
    X63       CONSTR8   983
    X63       CONSTR9   950
    X63       CONSTR10  198
    X64       OBJ       992
    X64       CONSTR1   78
    X64       CONSTR2   303
    X64       CONSTR3   688
    X64       CONSTR4   592
    X64       CONSTR5   68
    X64       CONSTR6   903
    X64       CONSTR7   668
    X64       CONSTR8   878
    X64       CONSTR9   900
    X64       CONSTR10  215
    X65       OBJ       1014
    X65       CONSTR1   791
    X65       CONSTR2   586
    X65       CONSTR3   867
    X65       CONSTR4   209
    X65       CONSTR5   697
    X65       CONSTR6   315
    X65       CONSTR7   783
    X65       CONSTR8   851
    X65       CONSTR9   797
    X65       CONSTR10  671
    X66       OBJ       881
    X66       CONSTR1   160
    X66       CONSTR2   812
    X66       CONSTR3   610
    X66       CONSTR4   850
    X66       CONSTR5   189
    X66       CONSTR6   986
    X66       CONSTR7   805
    X66       CONSTR8   521
    X66       CONSTR9   19
    X66       CONSTR10  597
    X67       OBJ       402
    X67       CONSTR1   50
    X67       CONSTR2   258
    X67       CONSTR3   123
    X67       CONSTR4   135
    X67       CONSTR5   789
    X67       CONSTR6   420
    X67       CONSTR7   237
    X67       CONSTR8   493
    X67       CONSTR9   624
    X67       CONSTR10  270
    X68       OBJ       487
    X68       CONSTR1   922
    X68       CONSTR2   897
    X68       CONSTR3   210
    X68       CONSTR4   674
    X68       CONSTR5   15
    X68       CONSTR6   939
    X68       CONSTR7   392
    X68       CONSTR8   235
    X68       CONSTR9   9
    X68       CONSTR10  515
    X69       OBJ       985
    X69       CONSTR1   910
    X69       CONSTR2   444
    X69       CONSTR3   958
    X69       CONSTR4   497
    X69       CONSTR5   937
    X69       CONSTR6   493
    X69       CONSTR7   856
    X69       CONSTR8   440
    X69       CONSTR9   84
    X69       CONSTR10  551
    X70       OBJ       515
    X70       CONSTR1   116
    X70       CONSTR2   399
    X70       CONSTR3   621
    X70       CONSTR4   424
    X70       CONSTR5   634
    X70       CONSTR6   63
    X70       CONSTR7   704
    X70       CONSTR8   406
    X70       CONSTR9   603
    X70       CONSTR10  545
    X71       OBJ       479
    X71       CONSTR1   327
    X71       CONSTR2   562
    X71       CONSTR3   603
    X71       CONSTR4   639
    X71       CONSTR5   139
    X71       CONSTR6   213
    X71       CONSTR7   83
    X71       CONSTR8   779
    X71       CONSTR9   158
    X71       CONSTR10  596
    X72       OBJ       554
    X72       CONSTR1   515
    X72       CONSTR2   452
    X72       CONSTR3   677
    X72       CONSTR4   52
    X72       CONSTR5   654
    X72       CONSTR6   469
    X72       CONSTR7   755
    X72       CONSTR8   837
    X72       CONSTR9   223
    X72       CONSTR10  498
    X73       OBJ       660
    X73       CONSTR1   964
    X73       CONSTR2   486
    X73       CONSTR3   54
    X73       CONSTR4   439
    X73       CONSTR5   175
    X73       CONSTR6   933
    X73       CONSTR7   894
    X73       CONSTR8   606
    X73       CONSTR9   311
    X73       CONSTR10  508
    X74       OBJ       920
    X74       CONSTR1   625
    X74       CONSTR2   45
    X74       CONSTR3   726
    X74       CONSTR4   605
    X74       CONSTR5   819
    X74       CONSTR6   695
    X74       CONSTR7   241
    X74       CONSTR8   440
    X74       CONSTR9   292
    X74       CONSTR10  460
    X75       OBJ       509
    X75       CONSTR1   48
    X75       CONSTR2   977
    X75       CONSTR3   959
    X75       CONSTR4   539
    X75       CONSTR5   585
    X75       CONSTR6   198
    X75       CONSTR7   903
    X75       CONSTR8   25
    X75       CONSTR9   428
    X75       CONSTR10  261
    X76       OBJ       624
    X76       CONSTR1   470
    X76       CONSTR2   816
    X76       CONSTR3   782
    X76       CONSTR4   990
    X76       CONSTR5   534
    X76       CONSTR6   118
    X76       CONSTR7   194
    X76       CONSTR8   531
    X76       CONSTR9   72
    X76       CONSTR10  848
    X77       OBJ       819
    X77       CONSTR1   257
    X77       CONSTR2   562
    X77       CONSTR3   310
    X77       CONSTR4   180
    X77       CONSTR5   168
    X77       CONSTR6   317
    X77       CONSTR7   965
    X77       CONSTR8   111
    X77       CONSTR9   846
    X77       CONSTR10  13
    X78       OBJ       656
    X78       CONSTR1   546
    X78       CONSTR2   1000
    X78       CONSTR3   811
    X78       CONSTR4   217
    X78       CONSTR5   935
    X78       CONSTR6   179
    X78       CONSTR7   884
    X78       CONSTR8   886
    X78       CONSTR9   350
    X78       CONSTR10  24
    X79       OBJ       921
    X79       CONSTR1   786
    X79       CONSTR2   148
    X79       CONSTR3   770
    X79       CONSTR4   209
    X79       CONSTR5   816
    X79       CONSTR6   117
    X79       CONSTR7   553
    X79       CONSTR8   18
    X79       CONSTR9   366
    X79       CONSTR10  834
    X80       OBJ       819
    X80       CONSTR1   416
    X80       CONSTR2   182
    X80       CONSTR3   715
    X80       CONSTR4   291
    X80       CONSTR5   804
    X80       CONSTR6   784
    X80       CONSTR7   511
    X80       CONSTR8   742
    X80       CONSTR9   321
    X80       CONSTR10  672
    X81       OBJ       895
    X81       CONSTR1   746
    X81       CONSTR2   494
    X81       CONSTR3   237
    X81       CONSTR4   338
    X81       CONSTR5   869
    X81       CONSTR6   880
    X81       CONSTR7   959
    X81       CONSTR8   586
    X81       CONSTR9   932
    X81       CONSTR10  128
    X82       OBJ       704
    X82       CONSTR1   550
    X82       CONSTR2   644
    X82       CONSTR3   336
    X82       CONSTR4   880
    X82       CONSTR5   886
    X82       CONSTR6   495
    X82       CONSTR7   77
    X82       CONSTR8   436
    X82       CONSTR9   357
    X82       CONSTR10  229
    X83       OBJ       654
    X83       CONSTR1   949
    X83       CONSTR2   482
    X83       CONSTR3   51
    X83       CONSTR4   712
    X83       CONSTR5   419
    X83       CONSTR6   685
    X83       CONSTR7   209
    X83       CONSTR8   73
    X83       CONSTR9   43
    X83       CONSTR10  266
    X84       OBJ       699
    X84       CONSTR1   740
    X84       CONSTR2   955
    X84       CONSTR3   650
    X84       CONSTR4   956
    X84       CONSTR5   520
    X84       CONSTR6   60
    X84       CONSTR7   299
    X84       CONSTR8   256
    X84       CONSTR9   80
    X84       CONSTR10  378
    X85       OBJ       611
    X85       CONSTR1   623
    X85       CONSTR2   74
    X85       CONSTR3   443
    X85       CONSTR4   624
    X85       CONSTR5   992
    X85       CONSTR6   239
    X85       CONSTR7   585
    X85       CONSTR8   848
    X85       CONSTR9   957
    X85       CONSTR10  471
    X86       OBJ       439
    X86       CONSTR1   352
    X86       CONSTR2   122
    X86       CONSTR3   770
    X86       CONSTR4   889
    X86       CONSTR5   81
    X86       CONSTR6   554
    X86       CONSTR7   511
    X86       CONSTR8   279
    X86       CONSTR9   411
    X86       CONSTR10  187
    X87       OBJ       550
    X87       CONSTR1   282
    X87       CONSTR2   961
    X87       CONSTR3   390
    X87       CONSTR4   155
    X87       CONSTR5   861
    X87       CONSTR6   950
    X87       CONSTR7   30
    X87       CONSTR8   513
    X87       CONSTR9   457
    X87       CONSTR10  545
    X88       OBJ       429
    X88       CONSTR1   665
    X88       CONSTR2   38
    X88       CONSTR3   7
    X88       CONSTR4   593
    X88       CONSTR5   433
    X88       CONSTR6   207
    X88       CONSTR7   5
    X88       CONSTR8   430
    X88       CONSTR9   685
    X88       CONSTR10  963
    X89       OBJ       843
    X89       CONSTR1   562
    X89       CONSTR2   402
    X89       CONSTR3   884
    X89       CONSTR4   397
    X89       CONSTR5   334
    X89       CONSTR6   923
    X89       CONSTR7   338
    X89       CONSTR8   539
    X89       CONSTR9   899
    X89       CONSTR10  16
    X90       OBJ       807
    X90       CONSTR1   990
    X90       CONSTR2   397
    X90       CONSTR3   116
    X90       CONSTR4   306
    X90       CONSTR5   870
    X90       CONSTR6   311
    X90       CONSTR7   772
    X90       CONSTR8   148
    X90       CONSTR9   340
    X90       CONSTR10  676
    X91       OBJ       986
    X91       CONSTR1   666
    X91       CONSTR2   619
    X91       CONSTR3   620
    X91       CONSTR4   785
    X91       CONSTR5   610
    X91       CONSTR6   222
    X91       CONSTR7   261
    X91       CONSTR8   263
    X91       CONSTR9   503
    X91       CONSTR10  398
    X92       OBJ       651
    X92       CONSTR1   780
    X92       CONSTR2   515
    X92       CONSTR3   635
    X92       CONSTR4   478
    X92       CONSTR5   443
    X92       CONSTR6   281
    X92       CONSTR7   848
    X92       CONSTR8   348
    X92       CONSTR9   674
    X92       CONSTR10  104
    X93       OBJ       632
    X93       CONSTR1   592
    X93       CONSTR2   98
    X93       CONSTR3   110
    X93       CONSTR4   237
    X93       CONSTR5   136
    X93       CONSTR6   746
    X93       CONSTR7   202
    X93       CONSTR8   139
    X93       CONSTR9   729
    X93       CONSTR10  330
    X94       OBJ       1062
    X94       CONSTR1   337
    X94       CONSTR2   966
    X94       CONSTR3   82
    X94       CONSTR4   279
    X94       CONSTR5   964
    X94       CONSTR6   61
    X94       CONSTR7   984
    X94       CONSTR8   871
    X94       CONSTR9   640
    X94       CONSTR10  869
    X95       OBJ       992
    X95       CONSTR1   429
    X95       CONSTR2   686
    X95       CONSTR3   658
    X95       CONSTR4   134
    X95       CONSTR5   592
    X95       CONSTR6   646
    X95       CONSTR7   718
    X95       CONSTR8   992
    X95       CONSTR9   493
    X95       CONSTR10  597
    X96       OBJ       678
    X96       CONSTR1   635
    X96       CONSTR2   487
    X96       CONSTR3   172
    X96       CONSTR4   727
    X96       CONSTR5   923
    X96       CONSTR6   673
    X96       CONSTR7   344
    X96       CONSTR8   677
    X96       CONSTR9   635
    X96       CONSTR10  200
    X97       OBJ       653
    X97       CONSTR1   713
    X97       CONSTR2   908
    X97       CONSTR3   12
    X97       CONSTR4   143
    X97       CONSTR5   791
    X97       CONSTR6   426
    X97       CONSTR7   71
    X97       CONSTR8   48
    X97       CONSTR9   444
    X97       CONSTR10  648
    X98       OBJ       650
    X98       CONSTR1   705
    X98       CONSTR2   640
    X98       CONSTR3   206
    X98       CONSTR4   310
    X98       CONSTR5   235
    X98       CONSTR6   15
    X98       CONSTR7   876
    X98       CONSTR8   541
    X98       CONSTR9   162
    X98       CONSTR10  391
    X99       OBJ       786
    X99       CONSTR1   873
    X99       CONSTR2   710
    X99       CONSTR3   417
    X99       CONSTR4   348
    X99       CONSTR5   444
    X99       CONSTR6   813
    X99       CONSTR7   245
    X99       CONSTR8   210
    X99       CONSTR9   620
    X99       CONSTR10  65
    X100      OBJ       574
    X100      CONSTR1   269
    X100      CONSTR2   315
    X100      CONSTR3   450
    X100      CONSTR4   595
    X100      CONSTR5   215
    X100      CONSTR6   313
    X100      CONSTR7   243
    X100      CONSTR8   936
    X100      CONSTR9   36
    X100      CONSTR10  972
    INT0001   'MARKER'  'INTEND'
RHS
    RHS10001  CONSTR1   39137
    RHS10001  CONSTR2   38215
    RHS10001  CONSTR3   36789
    RHS10001  CONSTR4   37841
    RHS10001  CONSTR5   41263
    RHS10001  CONSTR6   37520
    RHS10001  CONSTR7   37167
    RHS10001  CONSTR8   39842
    RHS10001  CONSTR9   36897
    RHS10001  CONSTR10  36284
BOUNDS
 BV BND       X1        .00
 BV BND       X2        .00
 BV BND       X3        .00
 BV BND       X4        .00
 BV BND       X5        .00
 BV BND       X6        .00
 BV BND       X7        .00
 BV BND       X8        .00
 BV BND       X9        .00
 BV BND       X10       .00
 BV BND       X11       .00
 BV BND       X12       .00
 BV BND       X13       .00
 BV BND       X14       .00
 BV BND       X15       .00
 BV BND       X16       .00
 BV BND       X17       .00
 BV BND       X18       .00
 BV BND       X19       .00
 BV BND       X20       .00
 BV BND       X21       .00
 BV BND       X22       .00
 BV BND       X23       .00
 BV BND       X24       .00
 BV BND       X25       .00
 BV BND       X26       .00
 BV BND       X27       .00
 BV BND       X28       .00
 BV BND       X29       .00
 BV BND       X30       .00
 BV BND       X31       .00
 BV BND       X32       .00
 BV BND       X33       .00
 BV BND       X34       .00
 BV BND       X35       .00
 BV BND       X36       .00
 BV BND       X37       .00
 BV BND       X38       .00
 BV BND       X39       .00
 BV BND       X40       .00
 BV BND       X41       .00
 BV BND       X42       .00
 BV BND       X43       .00
 BV BND       X44       .00
 BV BND       X45       .00
 BV BND       X46       .00
 BV BND       X47       .00
 BV BND       X48       .00
 BV BND       X49       .00
 BV BND       X50       .00
 BV BND       X51       .00
 BV BND       X52       .00
 BV BND       X53       .00
 BV BND       X54       .00
 BV BND       X55       .00
 BV BND       X56       .00
 BV BND       X57       .00
 BV BND       X58       .00
 BV BND       X59       .00
 BV BND       X60       .00
 BV BND       X61       .00
 BV BND       X62       .00
 BV BND       X63       .00
 BV BND       X64       .00
 BV BND       X65       .00
 BV BND       X66       .00
 BV BND       X67       .00
 BV BND       X68       .00
 BV BND       X69       .00
 BV BND       X70       .00
 BV BND       X71       .00
 BV BND       X72       .00
 BV BND       X73       .00
 BV BND       X74       .00
 BV BND       X75       .00
 BV BND       X76       .00
 BV BND       X77       .00
 BV BND       X78       .00
 BV BND       X79       .00
 BV BND       X80       .00
 BV BND       X81       .00
 BV BND       X82       .00
 BV BND       X83       .00
 BV BND       X84       .00
 BV BND       X85       .00
 BV BND       X86       .00
 BV BND       X87       .00
 BV BND       X88       .00
 BV BND       X89       .00
 BV BND       X90       .00
 BV BND       X91       .00
 BV BND       X92       .00
 BV BND       X93       .00
 BV BND       X94       .00
 BV BND       X95       .00
 BV BND       X96       .00
 BV BND       X97       .00
 BV BND       X98       .00
 BV BND       X99       .00
 BV BND       X100      .00
ENDATA
